NAME: cities_5_4
TYPE: TSP
COMMENT: Generated from CSV
DIMENSION: 5
EDGE_WEIGHT_TYPE: EUC_2D
NODE_COORD_SECTION
1 80.56397331423945 83.63851898228086
2 4.900391344089639 20.984817425621248
3 4.600891431099463 9.964448450357075
4 5.947733180409143 98.1234905590915
5 64.08674221499521 99.5355444047652
EOF
